    1C
    1UUSER                                                              
    1UDATE              01.january.2014                                 
    1UTIME              21:05:30                                        
    1UHOST                                                              
    1UPGM               CalculiX                                        
    1UDIR                                                               
    1UDBN                                                               
    2C                            98                                     1
 -1         1 0.00000E+00 0.00000E+00 0.00000E+00
 -1         2 1.00000E+00 0.00000E+00 0.00000E+00
 -1         3 1.00000E+00 1.00000E+00 0.00000E+00
 -1         4 0.00000E+00 1.00000E+00 0.00000E+00
 -1         5 0.00000E+00 0.00000E+00 1.00000E+00
 -1         6 1.00000E+00 0.00000E+00 1.00000E+00
 -1         7 1.00000E+00 1.00000E+00 1.00000E+00
 -1         8 0.00000E+00 1.00000E+00 1.00000E+00
 -1         9 2.50000E-01 0.00000E+00 0.00000E+00
 -1        10 5.00000E-01 0.00000E+00 0.00000E+00
 -1        11 7.50000E-01 0.00000E+00 0.00000E+00
 -1        12 1.00000E+00 2.50000E-01 0.00000E+00
 -1        13 1.00000E+00 5.00000E-01 0.00000E+00
 -1        14 1.00000E+00 7.50000E-01 0.00000E+00
 -1        15 7.50000E-01 1.00000E+00 0.00000E+00
 -1        16 5.00000E-01 1.00000E+00 0.00000E+00
 -1        17 2.50000E-01 1.00000E+00 0.00000E+00
 -1        18 0.00000E+00 7.50000E-01 0.00000E+00
 -1        19 0.00000E+00 5.00000E-01 0.00000E+00
 -1        20 0.00000E+00 2.50000E-01 0.00000E+00
 -1        21 2.50000E-01 0.00000E+00 1.00000E+00
 -1        22 5.00000E-01 0.00000E+00 1.00000E+00
 -1        23 7.50000E-01 0.00000E+00 1.00000E+00
 -1        24 1.00000E+00 2.50000E-01 1.00000E+00
 -1        25 1.00000E+00 5.00000E-01 1.00000E+00
 -1        26 1.00000E+00 7.50000E-01 1.00000E+00
 -1        27 7.50000E-01 1.00000E+00 1.00000E+00
 -1        28 5.00000E-01 1.00000E+00 1.00000E+00
 -1        29 2.50000E-01 1.00000E+00 1.00000E+00
 -1        30 0.00000E+00 7.50000E-01 1.00000E+00
 -1        31 0.00000E+00 5.00000E-01 1.00000E+00
 -1        32 0.00000E+00 2.50000E-01 1.00000E+00
 -1        33 1.00000E+00 0.00000E+00 2.50000E-01
 -1        34 1.00000E+00 0.00000E+00 5.00000E-01
 -1        35 1.00000E+00 0.00000E+00 7.50000E-01
 -1        36 0.00000E+00 0.00000E+00 7.50000E-01
 -1        37 0.00000E+00 0.00000E+00 5.00000E-01
 -1        38 0.00000E+00 0.00000E+00 2.50000E-01
 -1        39 1.00000E+00 1.00000E+00 2.50000E-01
 -1        40 1.00000E+00 1.00000E+00 5.00000E-01
 -1        41 1.00000E+00 1.00000E+00 7.50000E-01
 -1        42 0.00000E+00 1.00000E+00 2.50000E-01
 -1        43 0.00000E+00 1.00000E+00 5.00000E-01
 -1        44 0.00000E+00 1.00000E+00 7.50000E-01
 -1        45 5.00000E-01 2.50000E-01 0.00000E+00
 -1        46 2.50000E-01 5.00000E-01 0.00000E+00
 -1        47 5.00000E-01 5.00000E-01 0.00000E+00
 -1        48 7.50000E-01 5.00000E-01 0.00000E+00
 -1        49 5.00000E-01 7.50000E-01 0.00000E+00
 -1        50 5.00000E-01 2.50000E-01 1.00000E+00
 -1        51 2.50000E-01 5.00000E-01 1.00000E+00
 -1        52 5.00000E-01 5.00000E-01 1.00000E+00
 -1        53 7.50000E-01 5.00000E-01 1.00000E+00
 -1        54 5.00000E-01 7.50000E-01 1.00000E+00
 -1        55 5.00000E-01 0.00000E+00 2.50000E-01
 -1        56 2.50000E-01 0.00000E+00 5.00000E-01
 -1        57 5.00000E-01 0.00000E+00 5.00000E-01
 -1        58 7.50000E-01 0.00000E+00 5.00000E-01
 -1        59 5.00000E-01 0.00000E+00 7.50000E-01
 -1        60 1.00000E+00 5.00000E-01 2.50000E-01
 -1        61 1.00000E+00 2.50000E-01 5.00000E-01
 -1        62 1.00000E+00 5.00000E-01 5.00000E-01
 -1        63 1.00000E+00 7.50000E-01 5.00000E-01
 -1        64 1.00000E+00 5.00000E-01 7.50000E-01
 -1        65 5.00000E-01 1.00000E+00 2.50000E-01
 -1        66 7.50000E-01 1.00000E+00 5.00000E-01
 -1        67 5.00000E-01 1.00000E+00 5.00000E-01
 -1        68 2.50000E-01 1.00000E+00 5.00000E-01
 -1        69 5.00000E-01 1.00000E+00 7.50000E-01
 -1        70 0.00000E+00 5.00000E-01 2.50000E-01
 -1        71 0.00000E+00 7.50000E-01 5.00000E-01
 -1        72 0.00000E+00 5.00000E-01 5.00000E-01
 -1        73 0.00000E+00 2.50000E-01 5.00000E-01
 -1        74 0.00000E+00 5.00000E-01 7.50000E-01
 -1        75 5.00000E-01 5.00000E-01 2.50000E-01
 -1        76 5.00000E-01 2.50000E-01 5.00000E-01
 -1        77 2.50000E-01 5.00000E-01 5.00000E-01
 -1        78 5.00000E-01 5.00000E-01 5.00000E-01
 -1        79 7.50000E-01 5.00000E-01 5.00000E-01
 -1        80 5.00000E-01 7.50000E-01 5.00000E-01
 -1        81 5.00000E-01 5.00000E-01 7.50000E-01
 -1       156 2.50000E-01 0.00000E+00 5.00000E-01
 -1       157 5.00000E-01 0.00000E+00 5.00000E-01
 -1       158 7.50000E-01 0.00000E+00 5.00000E-01
 -1       161 1.00000E+00 2.50000E-01 5.00000E-01
 -1       162 1.00000E+00 5.00000E-01 5.00000E-01
 -1       163 1.00000E+00 7.50000E-01 5.00000E-01
 -1       166 7.50000E-01 1.00000E+00 5.00000E-01
 -1       167 5.00000E-01 1.00000E+00 5.00000E-01
 -1       168 2.50000E-01 1.00000E+00 5.00000E-01
 -1       171 0.00000E+00 7.50000E-01 5.00000E-01
 -1       172 0.00000E+00 5.00000E-01 5.00000E-01
 -1       173 0.00000E+00 2.50000E-01 5.00000E-01
 -1       176 5.00000E-01 2.50000E-01 5.00000E-01
 -1       177 2.50000E-01 5.00000E-01 5.00000E-01
 -1       178 5.00000E-01 5.00000E-01 5.00000E-01
 -1       179 7.50000E-01 5.00000E-01 5.00000E-01
 -1       180 5.00000E-01 7.50000E-01 5.00000E-01
 -3
    3C                             8                                     1
 -1         1    4    0EL   
 -2         1        10        47        19        37        57        78        72         9        45
 -2        46        20        38        55        75        70        56        76        77        73
 -1         2    4    0EL   
 -2        10         2        13        47        57        34        62        78        11        12
 -2        48        45        55        33        60        75        58        61        79        76
 -1         3    4    0EL   
 -2        19        47        16         4        72        78        67        43        46        49
 -2        17        18        70        75        65        42        77        80        68        71
 -1         4    4    0EL   
 -2        47        13         3        16        78        62        40        67        48        14
 -2        15        49        75        60        39        65        79        63        66        80
 -1         5    4    0EL   
 -2        37       157       178       172         5        22        52        31       156       176
 -2       177       173        36        59        81        74        21        50        51        32
 -1         6    4    0EL   
 -2       157        34       162       178        22         6        25        52       158       161
 -2       179       176        59        35        64        81        23        24        53        50
 -1         7    4    0EL   
 -2       172       178       167        43        31        52        28         8       177       180
 -2       168       171        74        81        69        44        51        54        29        30
 -1         8    4    0EL   
 -2       178       162        40       167        52        25         7        28       179       163
 -2       166       180        81        64        41        69        53        26        27        54
 -3
    1PSTEP                         1           1           1          
  100CL  101 1.000000000          98                     0    1           1
 -4  STRESS      6    1
 -5  SXX         1    4    1    1
 -5  SYY         1    4    2    2
 -5  SZZ         1    4    3    3
 -5  SXY         1    4    1    2
 -5  SYZ         1    4    2    3
 -5  SZX         1    4    3    1
 -1         1-7.19402E+00-7.19402E+00 4.76471E+00 5.20827E+00 1.20737E+01 1.20737E+01
 -1         2-8.96336E+00-8.96336E+00 1.49532E+02 7.15215E+00 3.93583E+01-3.93583E+01
 -1         3-7.19402E+00-7.19402E+00 4.76471E+00 5.20827E+00-1.20737E+01-1.20737E+01
 -1         4-8.96336E+00-8.96336E+00 1.49532E+02 7.15215E+00-3.93583E+01 3.93583E+01
 -1         5-9.03354E+00-9.03354E+00 7.51519E+01-1.33864E+00-2.64177E+01-2.64177E+01
 -1         6-7.12384E+00-7.12384E+00 7.91453E+01 6.05234E-01-2.50143E+01 2.50143E+01
 -1         7-9.03354E+00-9.03354E+00 7.51519E+01-1.33864E+00 2.64177E+01 2.64177E+01
 -1         8-7.12384E+00-7.12384E+00 7.91453E+01 6.05234E-01 2.50143E+01-2.50143E+01
 -1         9-5.79930E+00 5.93750E+00 2.45625E+00 2.03161E+00 8.80822E+00-1.40929E+01
 -1        10-1.30195E+01 8.07856E+00-3.71493E+01 5.21232E+00-3.43309E+00-7.67713E+00
 -1        11-1.52989E+01-5.93763E+00 3.75431E+01 9.36092E+00 1.34747E+01-7.22656E+00
 -1        12-5.93763E+00-1.52989E+01 3.75431E+01 9.36092E+00 7.22656E+00-1.34747E+01
 -1        13 8.07856E+00-1.30195E+01-3.71493E+01 5.21232E+00 7.67713E+00 3.43309E+00
 -1        14 5.93750E+00-5.79930E+00 2.45625E+00 2.03161E+00 1.40929E+01-8.80822E+00
 -1        15-5.79930E+00 5.93750E+00 2.45625E+00 2.03161E+00-8.80822E+00 1.40929E+01
 -1        16-1.30195E+01 8.07856E+00-3.71493E+01 5.21232E+00 3.43309E+00 7.67713E+00
 -1        17-1.52989E+01-5.93763E+00 3.75431E+01 9.36092E+00-1.34747E+01 7.22656E+00
 -1        18-5.93763E+00-1.52989E+01 3.75431E+01 9.36092E+00-7.22656E+00 1.34747E+01
 -1        19 8.07856E+00-1.30195E+01-3.71493E+01 5.21232E+00-7.67713E+00-3.43309E+00
 -1        20 5.93750E+00-5.79930E+00 2.45625E+00 2.03161E+00-1.40929E+01 8.80822E+00
 -1        21-1.11867E+01-2.04961E-01 1.99326E+01-4.08241E+00-1.16083E+01 3.14438E+00
 -1        22-1.30195E+01 8.07856E+00-3.71493E+01-4.68819E-01 3.43309E+00 1.24146E-01
 -1        23-9.91144E+00 2.04827E-01 2.00667E+01 3.24689E+00-1.06746E+01-3.72193E+00
 -1        24 2.04827E-01-9.91144E+00 2.00667E+01 3.24689E+00 3.72193E+00 1.06746E+01
 -1        25 8.07856E+00-1.30195E+01-3.71493E+01-4.68819E-01-1.24146E-01-3.43309E+00
 -1        26-2.04961E-01-1.11867E+01 1.99326E+01-4.08241E+00-3.14438E+00 1.16083E+01
 -1        27-1.11867E+01-2.04961E-01 1.99326E+01-4.08241E+00 1.16083E+01-3.14438E+00
 -1        28-1.30195E+01 8.07856E+00-3.71493E+01-4.68819E-01-3.43309E+00-1.24146E-01
 -1        29-9.91144E+00 2.04827E-01 2.00667E+01 3.24689E+00 1.06746E+01 3.72193E+00
 -1        30 2.04827E-01-9.91144E+00 2.00667E+01 3.24689E+00-3.72193E+00-1.06746E+01
 -1        31 8.07856E+00-1.30195E+01-3.71493E+01-4.68819E-01 1.24146E-01 3.43309E+00
 -1        32-2.04961E-01-1.11867E+01 1.99326E+01-4.08241E+00 3.14438E+00-1.16083E+01
 -1        33 5.48260E+00 5.48260E+00 1.11246E+02 1.54244E+00 2.27471E+01-2.27471E+01
 -1        34 1.40332E+01 1.40332E+01 5.80319E+01-2.98581E+00 3.44168E+00-3.44168E+00
 -1        35 5.07044E-01 5.07044E-01 6.11252E+01-6.49553E-01-1.21335E+01 1.21335E+01
 -1        36 4.37264E-01 4.37264E-01 5.54718E+01 1.34059E+00-1.29999E+01-1.29999E+01
 -1        37 4.01275E+00 4.01275E+00 2.08648E+01 2.93836E+00-3.44168E+00-3.44168E+00
 -1        38-4.53829E+00-4.53829E+00 5.35132E+00 3.53258E+00 2.38618E+00 2.38618E+00
 -1        39-4.53829E+00-4.53829E+00 5.35132E+00 3.53258E+00-2.38618E+00-2.38618E+00
 -1        40 4.01275E+00 4.01275E+00 2.08648E+01 2.93836E+00 3.44168E+00 3.44168E+00
 -1        41 4.37264E-01 4.37264E-01 5.54718E+01 1.34059E+00 1.29999E+01 1.29999E+01
 -1        42 5.48260E+00 5.48260E+00 1.11246E+02 1.54244E+00-2.27471E+01 2.27471E+01
 -1        43 1.40332E+01 1.40332E+01 5.80319E+01-2.98581E+00-3.44168E+00 3.44168E+00
 -1        44 5.07044E-01 5.07044E-01 6.11252E+01-6.49553E-01 1.21335E+01-1.21335E+01
 -1        45-1.88502E+01-8.30117E+00-1.20000E+01 1.75738E+01 1.71641E+00 1.28464E+00
 -1        46-8.30117E+00-1.88502E+01-1.20000E+01 1.75738E+01 1.28464E+00 1.71641E+00
 -1        47-2.46809E+01-2.46809E+01 1.31493E+01 2.99353E+01-1.27720E-12 3.22409E-13
 -1        48-8.30117E+00-1.88502E+01-1.20000E+01 1.75738E+01-1.28464E+00-1.71641E+00
 -1        49-1.88502E+01-8.30117E+00-1.20000E+01 1.75738E+01-1.71641E+00-1.28464E+00
 -1        50-1.88502E+01-8.30117E+00-1.20000E+01-9.00162E-01-1.71641E+00 2.31258E-02
 -1        51-8.30117E+00-1.88502E+01-1.20000E+01-9.00162E-01 2.31258E-02-1.71641E+00
 -1        52-2.46809E+01-2.46809E+01 1.31493E+01-1.33150E+00-7.57172E-13 6.75904E-13
 -1        53-8.30117E+00-1.88502E+01-1.20000E+01-9.00162E-01-2.31258E-02 1.71641E+00
 -1        54-1.88502E+01-8.30117E+00-1.20000E+01-9.00162E-01 1.71641E+00-2.31258E-02
 -1        55-2.66543E+00-4.72154E-01-3.71493E+01-2.68454E+00-6.28345E+00-4.87696E+00
 -1        56-3.16542E-01-1.36823E+00 3.61618E-01-2.07714E+00-9.77115E+00 5.31864E+00
 -1        57 7.68861E+00-9.02286E+00-3.71493E+01-1.05814E+01-9.13382E+00-2.07680E+00
 -1        58 1.70282E+01 1.36837E+00 1.93751E+00-9.60945E+00 5.46268E-02-1.41141E+01
 -1        59-2.66543E+00-4.72154E-01-3.71493E+01-1.98484E-01 6.28345E+00-2.69029E-01
 -1        60-4.72154E-01-2.66543E+00-3.71493E+01-2.68454E+00 4.87696E+00 6.28345E+00
 -1        61 1.36837E+00 1.70282E+01 1.93751E+00-9.60945E+00 1.41141E+01-5.46268E-02
 -1        62-9.02286E+00 7.68861E+00-3.71493E+01-1.05814E+01 2.07680E+00 9.13382E+00
 -1        63-1.36823E+00-3.16542E-01 3.61618E-01-2.07714E+00-5.31864E+00 9.77115E+00
 -1        64-4.72154E-01-2.66543E+00-3.71493E+01-1.98484E-01 2.69029E-01-6.28345E+00
 -1        65-2.66543E+00-4.72154E-01-3.71493E+01-2.68454E+00 6.28345E+00 4.87696E+00
 -1        66-3.16542E-01-1.36823E+00 3.61618E-01-2.07714E+00 9.77115E+00-5.31864E+00
 -1        67 7.68861E+00-9.02286E+00-3.71493E+01-1.05814E+01 9.13382E+00 2.07680E+00
 -1        68 1.70282E+01 1.36837E+00 1.93751E+00-9.60945E+00-5.46268E-02 1.41141E+01
 -1        69-2.66543E+00-4.72154E-01-3.71493E+01-1.98484E-01-6.28345E+00 2.69029E-01
 -1        70-4.72154E-01-2.66543E+00-3.71493E+01-2.68454E+00-4.87696E+00-6.28345E+00
 -1        71 1.36837E+00 1.70282E+01 1.93751E+00-9.60945E+00-1.41141E+01 5.46268E-02
 -1        72-9.02286E+00 7.68861E+00-3.71493E+01-1.05814E+01-2.07680E+00-9.13382E+00
 -1        73-1.36823E+00-3.16542E-01 3.61618E-01-2.07714E+00 5.31864E+00-9.77115E+00
 -1        74-4.72154E-01-2.66543E+00-3.71493E+01-1.98484E-01-2.69029E-01 6.28345E+00
 -1        75 2.66543E+00 2.66543E+00 3.19994E+01 2.53751E+00 1.20792E-13-2.04281E-13
 -1        76 1.88502E+01 1.04944E+01 6.85012E+00-1.77209E+01 4.56679E+00-1.95667E+00
 -1        77 1.04944E+01 1.88502E+01 6.85012E+00-1.77209E+01-1.95667E+00 4.56679E+00
 -1        78 3.00117E+01 3.00117E+01 5.08495E+01-2.48603E+01 1.52145E-12-7.30083E-13
 -1        79 1.04944E+01 1.88502E+01 6.85012E+00-1.77209E+01 1.95667E+00-4.56679E+00
 -1        80 1.88502E+01 1.04944E+01 6.85012E+00-1.77209E+01-4.56679E+00 1.95667E+00
 -1        81 2.66543E+00 2.66543E+00 3.19994E+01 3.45518E-01 3.60156E-13 3.99680E-15
 -1       156 9.07189E+00 6.80959E-01 3.72418E-01 4.33095E+00 5.00518E+00-1.01298E+01
 -1       157 7.68861E+00-9.02286E+00-3.71493E+01 7.18508E-02 9.13382E+00-6.62203E-01
 -1       158 7.63972E+00-6.80826E-01 1.92670E+00-3.20136E+00 4.71135E+00 9.30290E+00
 -1       161-6.80826E-01 7.63972E+00 1.92670E+00-3.20136E+00-9.30290E+00-4.71135E+00
 -1       162-9.02286E+00 7.68861E+00-3.71493E+01 7.18508E-02 6.62203E-01-9.13382E+00
 -1       163 6.80959E-01 9.07189E+00 3.72418E-01 4.33095E+00 1.01298E+01-5.00518E+00
 -1       166 9.07189E+00 6.80959E-01 3.72418E-01 4.33095E+00-5.00518E+00 1.01298E+01
 -1       167 7.68861E+00-9.02286E+00-3.71493E+01 7.18508E-02-9.13382E+00 6.62203E-01
 -1       168 7.63972E+00-6.80826E-01 1.92670E+00-3.20136E+00-4.71135E+00-9.30290E+00
 -1       171-6.80826E-01 7.63972E+00 1.92670E+00-3.20136E+00 9.30290E+00 4.71135E+00
 -1       172-9.02286E+00 7.68861E+00-3.71493E+01 7.18508E-02-6.62203E-01 9.13382E+00
 -1       173 6.80959E-01 9.07189E+00 3.72418E-01 4.33095E+00-1.01298E+01 5.00518E+00
 -1       176 1.88502E+01 1.04944E+01 6.85012E+00 1.04720E+00-4.56679E+00-2.48081E-02
 -1       177 1.04944E+01 1.88502E+01 6.85012E+00 1.04720E+00-2.48081E-02-4.56679E+00
 -1       178 3.00117E+01 3.00117E+01 5.08495E+01 2.02254E+00 1.47704E-12-6.67910E-13
 -1       179 1.04944E+01 1.88502E+01 6.85012E+00 1.04720E+00 2.48081E-02 4.56679E+00
 -1       180 1.88502E+01 1.04944E+01 6.85012E+00 1.04720E+00 4.56679E+00 2.48081E-02
 -3
 9999
